152 124802
1 16 2 15 3 14 4 13 5 26 25 24 39 43 57 65 66 67 68 81 89 100 101 102 103 88 112 111 104 87 83 64 63 59 42 58 62 61 60 41 106 105 107 86 84 85 108 109 110 117 140 139 141 142 143 138 137 118 82 38 29 30 31 32 33 37 92 116 122 129 149 130 148 147 131 132 121 120 133 134 146 145 144 135 136 119 113 114 80 90 99 98 97 79 78 74 75 73 51 47 28 27 12 6 23 22 11 7 20 21 19 10 8 9 17 18 40 56 55 44 45 54 69 70 71 72 53 46 52 91 96 115 123 128 127 151 150 152 126 125 124 95 94 93 77 76 50 49 48 34 36 35 
